42348
48,49,46,45,42,41,103,105,106,107,108,109,110,111,99,50,95,100,112,119,104,40,118,38,39,123,124,120,121,122,126,132,133,134,136,184,141,185,186,175,176,177,189,188,187,190,151,150,149,148,147,25,144,145,140,139,143,142,137,138,131,130,129,128,127,29,28,27,26,20,21,19,12,13,14,15,16,3,1,2,5,4,8,6,7,9,10,17,18,11,22,23,24,146,154,155,153,152,197,192,191,193,194,198,199,200,201,202,196,195,183,182,179,181,180,178,174,172,173,171,135,170,169,164,165,166,161,162,157,158,159,160,163,168,167,125,116,117,115,114,113,101,102,156,98,96,97,93,92,94,88,87,89,91,90,81,82,80,79,78,77,76,75,74,68,83,86,85,84,67,66,65,64,63,62,61,59,60,57,58,71,72,73,70,69,30,31,32,33,37,36,35,34,52,51,54,55,56,53,43,44,47,48
